(set-info :category "industrial")
(set-info :status sat)
(declare-fun x00 () (_ BitVec 8))
(declare-fun x02 () (_ BitVec 8))
(declare-fun x04 () (_ BitVec 8))
(declare-fun x07 () (_ BitVec 8))
(declare-fun x08 () (_ BitVec 8))
(declare-fun x11 () (_ BitVec 8))
(declare-fun x13 () (_ BitVec 8))
(declare-fun x15 () (_ BitVec 8))
(declare-fun x18 () (_ BitVec 8))
(declare-fun x20 () (_ BitVec 8))
(declare-fun x22 () (_ BitVec 8))
(declare-fun x23 () (_ BitVec 8))
(declare-fun x25 () (_ BitVec 8))
(declare-fun x26 () (_ BitVec 8))
(declare-fun x28 () (_ BitVec 8))
(declare-fun x31 () (_ BitVec 8))
(declare-fun x32 () (_ BitVec 8))
(declare-fun x33 () (_ BitVec 8))
(declare-fun x34 () (_ BitVec 8))
(declare-fun x35 () (_ BitVec 8))
(declare-fun x36 () (_ BitVec 8))
(declare-fun x38 () (_ BitVec 8))
(declare-fun x41 () (_ BitVec 8))
(declare-fun x43 () (_ BitVec 8))
(declare-fun x47 () (_ BitVec 8))
(declare-fun x48 () (_ BitVec 8))
(declare-fun x51 () (_ BitVec 8))
(declare-fun x55 () (_ BitVec 8))
(declare-fun x56 () (_ BitVec 8))
(declare-fun x60 () (_ BitVec 8))
(declare-fun x61 () (_ BitVec 8))
(declare-fun x62 () (_ BitVec 8))
(declare-fun x66 () (_ BitVec 8))
(declare-fun x67 () (_ BitVec 8))
(declare-fun x68 () (_ BitVec 8))
(declare-fun x70 () (_ BitVec 8))
(declare-fun x71 () (_ BitVec 8))
(declare-fun x72 () (_ BitVec 8))
(declare-fun x73 () (_ BitVec 8))
(declare-fun x75 () (_ BitVec 8))
(declare-fun x78 () (_ BitVec 8))
(declare-fun x81 () (_ BitVec 8))
(declare-fun x82 () (_ BitVec 8))
(declare-fun x83 () (_ BitVec 8))
(declare-fun x84 () (_ BitVec 8))
(declare-fun x85 () (_ BitVec 8))
(declare-fun x87 () (_ BitVec 8))
(assert (bvult x00 (_ bv9 8)))
(assert (bvult x02 (_ bv9 8)))
(assert (bvult x04 (_ bv9 8)))
(assert (bvult x07 (_ bv9 8)))
(assert (bvult x08 (_ bv9 8)))
(assert (bvult x11 (_ bv9 8)))
(assert (bvult x13 (_ bv9 8)))
(assert (bvult x15 (_ bv9 8)))
(assert (bvult x18 (_ bv9 8)))
(assert (bvult x20 (_ bv9 8)))
(assert (bvult x22 (_ bv9 8)))
(assert (bvult x23 (_ bv9 8)))
(assert (bvult x25 (_ bv9 8)))
(assert (bvult x26 (_ bv9 8)))
(assert (bvult x28 (_ bv9 8)))
(assert (bvult x31 (_ bv9 8)))
(assert (bvult x32 (_ bv9 8)))
(assert (bvult x33 (_ bv9 8)))
(assert (bvult x34 (_ bv9 8)))
(assert (bvult x35 (_ bv9 8)))
(assert (bvult x36 (_ bv9 8)))
(assert (bvult x38 (_ bv9 8)))
(assert (bvult x41 (_ bv9 8)))
(assert (bvult x43 (_ bv9 8)))
(assert (bvult x47 (_ bv9 8)))
(assert (bvult x48 (_ bv9 8)))
(assert (bvult x51 (_ bv9 8)))
(assert (bvult x55 (_ bv9 8)))
(assert (bvult x56 (_ bv9 8)))
(assert (bvult x60 (_ bv9 8)))
(assert (bvult x61 (_ bv9 8)))
(assert (bvult x62 (_ bv9 8)))
(assert (bvult x66 (_ bv9 8)))
(assert (bvult x67 (_ bv9 8)))
(assert (bvult x68 (_ bv9 8)))
(assert (bvult x70 (_ bv9 8)))
(assert (bvult x71 (_ bv9 8)))
(assert (bvult x72 (_ bv9 8)))
(assert (bvult x73 (_ bv9 8)))
(assert (bvult x75 (_ bv9 8)))
(assert (bvult x78 (_ bv9 8)))
(assert (bvult x81 (_ bv9 8)))
(assert (bvult x82 (_ bv9 8)))
(assert (bvult x83 (_ bv9 8)))
(assert (bvult x84 (_ bv9 8)))
(assert (bvult x85 (_ bv9 8)))
(assert (bvult x87 (_ bv9 8)))
(assert (not (= x00 (_ bv4 8))))
(assert (not (= x00 x02)))
(assert (not (= x00 (_ bv3 8))))
(assert (not (= x00 x04)))
(assert (not (= x00 (_ bv1 8))))
(assert (not (= x00 (_ bv8 8))))
(assert (not (= x00 x07)))
(assert (not (= x00 x08)))
(assert (not (= (_ bv4 8) x02)))
(assert (not (= (_ bv4 8) (_ bv3 8))))
(assert (not (= (_ bv4 8) x04)))
(assert (not (= (_ bv4 8) (_ bv1 8))))
(assert (not (= (_ bv4 8) (_ bv8 8))))
(assert (not (= (_ bv4 8) x07)))
(assert (not (= (_ bv4 8) x08)))
(assert (not (= x02 (_ bv3 8))))
(assert (not (= x02 x04)))
(assert (not (= x02 (_ bv1 8))))
(assert (not (= x02 (_ bv8 8))))
(assert (not (= x02 x07)))
(assert (not (= x02 x08)))
(assert (not (= (_ bv3 8) x04)))
(assert (not (= (_ bv3 8) (_ bv1 8))))
(assert (not (= (_ bv3 8) (_ bv8 8))))
(assert (not (= (_ bv3 8) x07)))
(assert (not (= (_ bv3 8) x08)))
(assert (not (= x04 (_ bv1 8))))
(assert (not (= x04 (_ bv8 8))))
(assert (not (= x04 x07)))
(assert (not (= x04 x08)))
(assert (not (= (_ bv1 8) (_ bv8 8))))
(assert (not (= (_ bv1 8) x07)))
(assert (not (= (_ bv1 8) x08)))
(assert (not (= (_ bv8 8) x07)))
(assert (not (= (_ bv8 8) x08)))
(assert (not (= x07 x08)))
(assert (not (= (_ bv8 8) x11)))
(assert (not (= (_ bv8 8) (_ bv3 8))))
(assert (not (= (_ bv8 8) x13)))
(assert (not (= (_ bv8 8) (_ bv5 8))))
(assert (not (= (_ bv8 8) x15)))
(assert (not (= (_ bv8 8) (_ bv1 8))))
(assert (not (= (_ bv8 8) (_ bv2 8))))
(assert (not (= (_ bv8 8) x18)))
(assert (not (= x11 (_ bv3 8))))
(assert (not (= x11 x13)))
(assert (not (= x11 (_ bv5 8))))
(assert (not (= x11 x15)))
(assert (not (= x11 (_ bv1 8))))
(assert (not (= x11 (_ bv2 8))))
(assert (not (= x11 x18)))
(assert (not (= (_ bv3 8) x13)))
(assert (not (= (_ bv3 8) (_ bv5 8))))
(assert (not (= (_ bv3 8) x15)))
(assert (not (= (_ bv3 8) (_ bv1 8))))
(assert (not (= (_ bv3 8) (_ bv2 8))))
(assert (not (= (_ bv3 8) x18)))
(assert (not (= x13 (_ bv5 8))))
(assert (not (= x13 x15)))
(assert (not (= x13 (_ bv1 8))))
(assert (not (= x13 (_ bv2 8))))
(assert (not (= x13 x18)))
(assert (not (= (_ bv5 8) x15)))
(assert (not (= (_ bv5 8) (_ bv1 8))))
(assert (not (= (_ bv5 8) (_ bv2 8))))
(assert (not (= (_ bv5 8) x18)))
(assert (not (= x15 (_ bv1 8))))
(assert (not (= x15 (_ bv2 8))))
(assert (not (= x15 x18)))
(assert (not (= (_ bv1 8) (_ bv2 8))))
(assert (not (= (_ bv1 8) x18)))
(assert (not (= (_ bv2 8) x18)))
(assert (not (= x20 (_ bv5 8))))
(assert (not (= x20 x22)))
(assert (not (= x20 x23)))
(assert (not (= x20 (_ bv4 8))))
(assert (not (= x20 x25)))
(assert (not (= x20 x26)))
(assert (not (= x20 (_ bv7 8))))
(assert (not (= x20 x28)))
(assert (not (= (_ bv5 8) x22)))
(assert (not (= (_ bv5 8) x23)))
(assert (not (= (_ bv5 8) (_ bv4 8))))
(assert (not (= (_ bv5 8) x25)))
(assert (not (= (_ bv5 8) x26)))
(assert (not (= (_ bv5 8) (_ bv7 8))))
(assert (not (= (_ bv5 8) x28)))
(assert (not (= x22 x23)))
(assert (not (= x22 (_ bv4 8))))
(assert (not (= x22 x25)))
(assert (not (= x22 x26)))
(assert (not (= x22 (_ bv7 8))))
(assert (not (= x22 x28)))
(assert (not (= x23 (_ bv4 8))))
(assert (not (= x23 x25)))
(assert (not (= x23 x26)))
(assert (not (= x23 (_ bv7 8))))
(assert (not (= x23 x28)))
(assert (not (= (_ bv4 8) x25)))
(assert (not (= (_ bv4 8) x26)))
(assert (not (= (_ bv4 8) (_ bv7 8))))
(assert (not (= (_ bv4 8) x28)))
(assert (not (= x25 x26)))
(assert (not (= x25 (_ bv7 8))))
(assert (not (= x25 x28)))
(assert (not (= x26 (_ bv7 8))))
(assert (not (= x26 x28)))
(assert (not (= (_ bv7 8) x28)))
(assert (not (= (_ bv4 8) x31)))
(assert (not (= (_ bv4 8) x32)))
(assert (not (= (_ bv4 8) x33)))
(assert (not (= (_ bv4 8) x34)))
(assert (not (= (_ bv4 8) x35)))
(assert (not (= (_ bv4 8) x36)))
(assert (not (= (_ bv4 8) (_ bv5 8))))
(assert (not (= (_ bv4 8) x38)))
(assert (not (= x31 x32)))
(assert (not (= x31 x33)))
(assert (not (= x31 x34)))
(assert (not (= x31 x35)))
(assert (not (= x31 x36)))
(assert (not (= x31 (_ bv5 8))))
(assert (not (= x31 x38)))
(assert (not (= x32 x33)))
(assert (not (= x32 x34)))
(assert (not (= x32 x35)))
(assert (not (= x32 x36)))
(assert (not (= x32 (_ bv5 8))))
(assert (not (= x32 x38)))
(assert (not (= x33 x34)))
(assert (not (= x33 x35)))
(assert (not (= x33 x36)))
(assert (not (= x33 (_ bv5 8))))
(assert (not (= x33 x38)))
(assert (not (= x34 x35)))
(assert (not (= x34 x36)))
(assert (not (= x34 (_ bv5 8))))
(assert (not (= x34 x38)))
(assert (not (= x35 x36)))
(assert (not (= x35 (_ bv5 8))))
(assert (not (= x35 x38)))
(assert (not (= x36 (_ bv5 8))))
(assert (not (= x36 x38)))
(assert (not (= (_ bv5 8) x38)))
(assert (not (= (_ bv7 8) x41)))
(assert (not (= (_ bv7 8) (_ bv5 8))))
(assert (not (= (_ bv7 8) x43)))
(assert (not (= (_ bv7 8) (_ bv6 8))))
(assert (not (= (_ bv7 8) (_ bv9 8))))
(assert (not (= (_ bv7 8) (_ bv2 8))))
(assert (not (= (_ bv7 8) x47)))
(assert (not (= (_ bv7 8) x48)))
(assert (not (= x41 (_ bv5 8))))
(assert (not (= x41 x43)))
(assert (not (= x41 (_ bv6 8))))
(assert (not (= x41 (_ bv9 8))))
(assert (not (= x41 (_ bv2 8))))
(assert (not (= x41 x47)))
(assert (not (= x41 x48)))
(assert (not (= (_ bv5 8) x43)))
(assert (not (= (_ bv5 8) (_ bv6 8))))
(assert (not (= (_ bv5 8) (_ bv9 8))))
(assert (not (= (_ bv5 8) (_ bv2 8))))
(assert (not (= (_ bv5 8) x47)))
(assert (not (= (_ bv5 8) x48)))
(assert (not (= x43 (_ bv6 8))))
(assert (not (= x43 (_ bv9 8))))
(assert (not (= x43 (_ bv2 8))))
(assert (not (= x43 x47)))
(assert (not (= x43 x48)))
(assert (not (= (_ bv6 8) (_ bv9 8))))
(assert (not (= (_ bv6 8) (_ bv2 8))))
(assert (not (= (_ bv6 8) x47)))
(assert (not (= (_ bv6 8) x48)))
(assert (not (= (_ bv9 8) (_ bv2 8))))
(assert (not (= (_ bv9 8) x47)))
(assert (not (= (_ bv9 8) x48)))
(assert (not (= (_ bv2 8) x47)))
(assert (not (= (_ bv2 8) x48)))
(assert (not (= x47 x48)))
(assert (not (= (_ bv1 8) x51)))
(assert (not (= (_ bv1 8) (_ bv6 8))))
(assert (not (= (_ bv1 8) (_ bv7 8))))
(assert (not (= (_ bv1 8) (_ bv2 8))))
(assert (not (= (_ bv1 8) x55)))
(assert (not (= (_ bv1 8) x56)))
(assert (not (= (_ bv1 8) (_ bv8 8))))
(assert (not (= (_ bv1 8) (_ bv9 8))))
(assert (not (= x51 (_ bv6 8))))
(assert (not (= x51 (_ bv7 8))))
(assert (not (= x51 (_ bv2 8))))
(assert (not (= x51 x55)))
(assert (not (= x51 x56)))
(assert (not (= x51 (_ bv8 8))))
(assert (not (= x51 (_ bv9 8))))
(assert (not (= (_ bv6 8) (_ bv7 8))))
(assert (not (= (_ bv6 8) (_ bv2 8))))
(assert (not (= (_ bv6 8) x55)))
(assert (not (= (_ bv6 8) x56)))
(assert (not (= (_ bv6 8) (_ bv8 8))))
(assert (not (= (_ bv6 8) (_ bv9 8))))
(assert (not (= (_ bv7 8) (_ bv2 8))))
(assert (not (= (_ bv7 8) x55)))
(assert (not (= (_ bv7 8) x56)))
(assert (not (= (_ bv7 8) (_ bv8 8))))
(assert (not (= (_ bv7 8) (_ bv9 8))))
(assert (not (= (_ bv2 8) x55)))
(assert (not (= (_ bv2 8) x56)))
(assert (not (= (_ bv2 8) (_ bv8 8))))
(assert (not (= (_ bv2 8) (_ bv9 8))))
(assert (not (= x55 x56)))
(assert (not (= x55 (_ bv8 8))))
(assert (not (= x55 (_ bv9 8))))
(assert (not (= x56 (_ bv8 8))))
(assert (not (= x56 (_ bv9 8))))
(assert (not (= (_ bv8 8) (_ bv9 8))))
(assert (not (= x60 x61)))
(assert (not (= x60 x62)))
(assert (not (= x60 (_ bv1 8))))
(assert (not (= x60 (_ bv7 8))))
(assert (not (= x60 (_ bv2 8))))
(assert (not (= x60 x66)))
(assert (not (= x60 x67)))
(assert (not (= x60 x68)))
(assert (not (= x61 x62)))
(assert (not (= x61 (_ bv1 8))))
(assert (not (= x61 (_ bv7 8))))
(assert (not (= x61 (_ bv2 8))))
(assert (not (= x61 x66)))
(assert (not (= x61 x67)))
(assert (not (= x61 x68)))
(assert (not (= x62 (_ bv1 8))))
(assert (not (= x62 (_ bv7 8))))
(assert (not (= x62 (_ bv2 8))))
(assert (not (= x62 x66)))
(assert (not (= x62 x67)))
(assert (not (= x62 x68)))
(assert (not (= (_ bv1 8) (_ bv7 8))))
(assert (not (= (_ bv1 8) (_ bv2 8))))
(assert (not (= (_ bv1 8) x66)))
(assert (not (= (_ bv1 8) x67)))
(assert (not (= (_ bv1 8) x68)))
(assert (not (= (_ bv7 8) (_ bv2 8))))
(assert (not (= (_ bv7 8) x66)))
(assert (not (= (_ bv7 8) x67)))
(assert (not (= (_ bv7 8) x68)))
(assert (not (= (_ bv2 8) x66)))
(assert (not (= (_ bv2 8) x67)))
(assert (not (= (_ bv2 8) x68)))
(assert (not (= x66 x67)))
(assert (not (= x66 x68)))
(assert (not (= x67 x68)))
(assert (not (= x70 x71)))
(assert (not (= x70 x72)))
(assert (not (= x70 x73)))
(assert (not (= x70 (_ bv8 8))))
(assert (not (= x70 x75)))
(assert (not (= x70 (_ bv3 8))))
(assert (not (= x70 (_ bv4 8))))
(assert (not (= x70 x78)))
(assert (not (= x71 x72)))
(assert (not (= x71 x73)))
(assert (not (= x71 (_ bv8 8))))
(assert (not (= x71 x75)))
(assert (not (= x71 (_ bv3 8))))
(assert (not (= x71 (_ bv4 8))))
(assert (not (= x71 x78)))
(assert (not (= x72 x73)))
(assert (not (= x72 (_ bv8 8))))
(assert (not (= x72 x75)))
(assert (not (= x72 (_ bv3 8))))
(assert (not (= x72 (_ bv4 8))))
(assert (not (= x72 x78)))
(assert (not (= x73 (_ bv8 8))))
(assert (not (= x73 x75)))
(assert (not (= x73 (_ bv3 8))))
(assert (not (= x73 (_ bv4 8))))
(assert (not (= x73 x78)))
(assert (not (= (_ bv8 8) x75)))
(assert (not (= (_ bv8 8) (_ bv3 8))))
(assert (not (= (_ bv8 8) (_ bv4 8))))
(assert (not (= (_ bv8 8) x78)))
(assert (not (= x75 (_ bv3 8))))
(assert (not (= x75 (_ bv4 8))))
(assert (not (= x75 x78)))
(assert (not (= (_ bv3 8) (_ bv4 8))))
(assert (not (= (_ bv3 8) x78)))
(assert (not (= (_ bv4 8) x78)))
(assert (not (= (_ bv9 8) x81)))
(assert (not (= (_ bv9 8) x82)))
(assert (not (= (_ bv9 8) x83)))
(assert (not (= (_ bv9 8) x84)))
(assert (not (= (_ bv9 8) x85)))
(assert (not (= (_ bv9 8) (_ bv6 8))))
(assert (not (= (_ bv9 8) x87)))
(assert (not (= (_ bv9 8) (_ bv2 8))))
(assert (not (= x81 x82)))
(assert (not (= x81 x83)))
(assert (not (= x81 x84)))
(assert (not (= x81 x85)))
(assert (not (= x81 (_ bv6 8))))
(assert (not (= x81 x87)))
(assert (not (= x81 (_ bv2 8))))
(assert (not (= x82 x83)))
(assert (not (= x82 x84)))
(assert (not (= x82 x85)))
(assert (not (= x82 (_ bv6 8))))
(assert (not (= x82 x87)))
(assert (not (= x82 (_ bv2 8))))
(assert (not (= x83 x84)))
(assert (not (= x83 x85)))
(assert (not (= x83 (_ bv6 8))))
(assert (not (= x83 x87)))
(assert (not (= x83 (_ bv2 8))))
(assert (not (= x84 x85)))
(assert (not (= x84 (_ bv6 8))))
(assert (not (= x84 x87)))
(assert (not (= x84 (_ bv2 8))))
(assert (not (= x85 (_ bv6 8))))
(assert (not (= x85 x87)))
(assert (not (= x85 (_ bv2 8))))
(assert (not (= (_ bv6 8) x87)))
(assert (not (= (_ bv6 8) (_ bv2 8))))
(assert (not (= x87 (_ bv2 8))))
(assert (not (= x00 (_ bv8 8))))
(assert (not (= x00 x20)))
(assert (not (= x00 (_ bv4 8))))
(assert (not (= x00 (_ bv7 8))))
(assert (not (= x00 (_ bv1 8))))
(assert (not (= x00 x60)))
(assert (not (= x00 x70)))
(assert (not (= x00 (_ bv9 8))))
(assert (not (= (_ bv8 8) x20)))
(assert (not (= (_ bv8 8) (_ bv4 8))))
(assert (not (= (_ bv8 8) (_ bv7 8))))
(assert (not (= (_ bv8 8) (_ bv1 8))))
(assert (not (= (_ bv8 8) x60)))
(assert (not (= (_ bv8 8) x70)))
(assert (not (= (_ bv8 8) (_ bv9 8))))
(assert (not (= x20 (_ bv4 8))))
(assert (not (= x20 (_ bv7 8))))
(assert (not (= x20 (_ bv1 8))))
(assert (not (= x20 x60)))
(assert (not (= x20 x70)))
(assert (not (= x20 (_ bv9 8))))
(assert (not (= (_ bv4 8) (_ bv7 8))))
(assert (not (= (_ bv4 8) (_ bv1 8))))
(assert (not (= (_ bv4 8) x60)))
(assert (not (= (_ bv4 8) x70)))
(assert (not (= (_ bv4 8) (_ bv9 8))))
(assert (not (= (_ bv7 8) (_ bv1 8))))
(assert (not (= (_ bv7 8) x60)))
(assert (not (= (_ bv7 8) x70)))
(assert (not (= (_ bv7 8) (_ bv9 8))))
(assert (not (= (_ bv1 8) x60)))
(assert (not (= (_ bv1 8) x70)))
(assert (not (= (_ bv1 8) (_ bv9 8))))
(assert (not (= x60 x70)))
(assert (not (= x60 (_ bv9 8))))
(assert (not (= x70 (_ bv9 8))))
(assert (not (= (_ bv4 8) x11)))
(assert (not (= (_ bv4 8) (_ bv5 8))))
(assert (not (= (_ bv4 8) x31)))
(assert (not (= (_ bv4 8) x41)))
(assert (not (= (_ bv4 8) x51)))
(assert (not (= (_ bv4 8) x61)))
(assert (not (= (_ bv4 8) x71)))
(assert (not (= (_ bv4 8) x81)))
(assert (not (= x11 (_ bv5 8))))
(assert (not (= x11 x31)))
(assert (not (= x11 x41)))
(assert (not (= x11 x51)))
(assert (not (= x11 x61)))
(assert (not (= x11 x71)))
(assert (not (= x11 x81)))
(assert (not (= (_ bv5 8) x31)))
(assert (not (= (_ bv5 8) x41)))
(assert (not (= (_ bv5 8) x51)))
(assert (not (= (_ bv5 8) x61)))
(assert (not (= (_ bv5 8) x71)))
(assert (not (= (_ bv5 8) x81)))
(assert (not (= x31 x41)))
(assert (not (= x31 x51)))
(assert (not (= x31 x61)))
(assert (not (= x31 x71)))
(assert (not (= x31 x81)))
(assert (not (= x41 x51)))
(assert (not (= x41 x61)))
(assert (not (= x41 x71)))
(assert (not (= x41 x81)))
(assert (not (= x51 x61)))
(assert (not (= x51 x71)))
(assert (not (= x51 x81)))
(assert (not (= x61 x71)))
(assert (not (= x61 x81)))
(assert (not (= x71 x81)))
(assert (not (= x02 (_ bv3 8))))
(assert (not (= x02 x22)))
(assert (not (= x02 x32)))
(assert (not (= x02 (_ bv5 8))))
(assert (not (= x02 (_ bv6 8))))
(assert (not (= x02 x62)))
(assert (not (= x02 x72)))
(assert (not (= x02 x82)))
(assert (not (= (_ bv3 8) x22)))
(assert (not (= (_ bv3 8) x32)))
(assert (not (= (_ bv3 8) (_ bv5 8))))
(assert (not (= (_ bv3 8) (_ bv6 8))))
(assert (not (= (_ bv3 8) x62)))
(assert (not (= (_ bv3 8) x72)))
(assert (not (= (_ bv3 8) x82)))
(assert (not (= x22 x32)))
(assert (not (= x22 (_ bv5 8))))
(assert (not (= x22 (_ bv6 8))))
(assert (not (= x22 x62)))
(assert (not (= x22 x72)))
(assert (not (= x22 x82)))
(assert (not (= x32 (_ bv5 8))))
(assert (not (= x32 (_ bv6 8))))
(assert (not (= x32 x62)))
(assert (not (= x32 x72)))
(assert (not (= x32 x82)))
(assert (not (= (_ bv5 8) (_ bv6 8))))
(assert (not (= (_ bv5 8) x62)))
(assert (not (= (_ bv5 8) x72)))
(assert (not (= (_ bv5 8) x82)))
(assert (not (= (_ bv6 8) x62)))
(assert (not (= (_ bv6 8) x72)))
(assert (not (= (_ bv6 8) x82)))
(assert (not (= x62 x72)))
(assert (not (= x62 x82)))
(assert (not (= x72 x82)))
(assert (not (= (_ bv3 8) x13)))
(assert (not (= (_ bv3 8) x23)))
(assert (not (= (_ bv3 8) x33)))
(assert (not (= (_ bv3 8) x43)))
(assert (not (= (_ bv3 8) (_ bv7 8))))
(assert (not (= (_ bv3 8) (_ bv1 8))))
(assert (not (= (_ bv3 8) x73)))
(assert (not (= (_ bv3 8) x83)))
(assert (not (= x13 x23)))
(assert (not (= x13 x33)))
(assert (not (= x13 x43)))
(assert (not (= x13 (_ bv7 8))))
(assert (not (= x13 (_ bv1 8))))
(assert (not (= x13 x73)))
(assert (not (= x13 x83)))
(assert (not (= x23 x33)))
(assert (not (= x23 x43)))
(assert (not (= x23 (_ bv7 8))))
(assert (not (= x23 (_ bv1 8))))
(assert (not (= x23 x73)))
(assert (not (= x23 x83)))
(assert (not (= x33 x43)))
(assert (not (= x33 (_ bv7 8))))
(assert (not (= x33 (_ bv1 8))))
(assert (not (= x33 x73)))
(assert (not (= x33 x83)))
(assert (not (= x43 (_ bv7 8))))
(assert (not (= x43 (_ bv1 8))))
(assert (not (= x43 x73)))
(assert (not (= x43 x83)))
(assert (not (= (_ bv7 8) (_ bv1 8))))
(assert (not (= (_ bv7 8) x73)))
(assert (not (= (_ bv7 8) x83)))
(assert (not (= (_ bv1 8) x73)))
(assert (not (= (_ bv1 8) x83)))
(assert (not (= x73 x83)))
(assert (not (= x04 (_ bv5 8))))
(assert (not (= x04 (_ bv4 8))))
(assert (not (= x04 x34)))
(assert (not (= x04 (_ bv6 8))))
(assert (not (= x04 (_ bv2 8))))
(assert (not (= x04 (_ bv7 8))))
(assert (not (= x04 (_ bv8 8))))
(assert (not (= x04 x84)))
(assert (not (= (_ bv5 8) (_ bv4 8))))
(assert (not (= (_ bv5 8) x34)))
(assert (not (= (_ bv5 8) (_ bv6 8))))
(assert (not (= (_ bv5 8) (_ bv2 8))))
(assert (not (= (_ bv5 8) (_ bv7 8))))
(assert (not (= (_ bv5 8) (_ bv8 8))))
(assert (not (= (_ bv5 8) x84)))
(assert (not (= (_ bv4 8) x34)))
(assert (not (= (_ bv4 8) (_ bv6 8))))
(assert (not (= (_ bv4 8) (_ bv2 8))))
(assert (not (= (_ bv4 8) (_ bv7 8))))
(assert (not (= (_ bv4 8) (_ bv8 8))))
(assert (not (= (_ bv4 8) x84)))
(assert (not (= x34 (_ bv6 8))))
(assert (not (= x34 (_ bv2 8))))
(assert (not (= x34 (_ bv7 8))))
(assert (not (= x34 (_ bv8 8))))
(assert (not (= x34 x84)))
(assert (not (= (_ bv6 8) (_ bv2 8))))
(assert (not (= (_ bv6 8) (_ bv7 8))))
(assert (not (= (_ bv6 8) (_ bv8 8))))
(assert (not (= (_ bv6 8) x84)))
(assert (not (= (_ bv2 8) (_ bv7 8))))
(assert (not (= (_ bv2 8) (_ bv8 8))))
(assert (not (= (_ bv2 8) x84)))
(assert (not (= (_ bv7 8) (_ bv8 8))))
(assert (not (= (_ bv7 8) x84)))
(assert (not (= (_ bv8 8) x84)))
(assert (not (= (_ bv1 8) x15)))
(assert (not (= (_ bv1 8) x25)))
(assert (not (= (_ bv1 8) x35)))
(assert (not (= (_ bv1 8) (_ bv9 8))))
(assert (not (= (_ bv1 8) x55)))
(assert (not (= (_ bv1 8) (_ bv2 8))))
(assert (not (= (_ bv1 8) x75)))
(assert (not (= (_ bv1 8) x85)))
(assert (not (= x15 x25)))
(assert (not (= x15 x35)))
(assert (not (= x15 (_ bv9 8))))
(assert (not (= x15 x55)))
(assert (not (= x15 (_ bv2 8))))
(assert (not (= x15 x75)))
(assert (not (= x15 x85)))
(assert (not (= x25 x35)))
(assert (not (= x25 (_ bv9 8))))
(assert (not (= x25 x55)))
(assert (not (= x25 (_ bv2 8))))
(assert (not (= x25 x75)))
(assert (not (= x25 x85)))
(assert (not (= x35 (_ bv9 8))))
(assert (not (= x35 x55)))
(assert (not (= x35 (_ bv2 8))))
(assert (not (= x35 x75)))
(assert (not (= x35 x85)))
(assert (not (= (_ bv9 8) x55)))
(assert (not (= (_ bv9 8) (_ bv2 8))))
(assert (not (= (_ bv9 8) x75)))
(assert (not (= (_ bv9 8) x85)))
(assert (not (= x55 (_ bv2 8))))
(assert (not (= x55 x75)))
(assert (not (= x55 x85)))
(assert (not (= (_ bv2 8) x75)))
(assert (not (= (_ bv2 8) x85)))
(assert (not (= x75 x85)))
(assert (not (= (_ bv8 8) (_ bv1 8))))
(assert (not (= (_ bv8 8) x26)))
(assert (not (= (_ bv8 8) x36)))
(assert (not (= (_ bv8 8) (_ bv2 8))))
(assert (not (= (_ bv8 8) x56)))
(assert (not (= (_ bv8 8) x66)))
(assert (not (= (_ bv8 8) (_ bv3 8))))
(assert (not (= (_ bv8 8) (_ bv6 8))))
(assert (not (= (_ bv1 8) x26)))
(assert (not (= (_ bv1 8) x36)))
(assert (not (= (_ bv1 8) (_ bv2 8))))
(assert (not (= (_ bv1 8) x56)))
(assert (not (= (_ bv1 8) x66)))
(assert (not (= (_ bv1 8) (_ bv3 8))))
(assert (not (= (_ bv1 8) (_ bv6 8))))
(assert (not (= x26 x36)))
(assert (not (= x26 (_ bv2 8))))
(assert (not (= x26 x56)))
(assert (not (= x26 x66)))
(assert (not (= x26 (_ bv3 8))))
(assert (not (= x26 (_ bv6 8))))
(assert (not (= x36 (_ bv2 8))))
(assert (not (= x36 x56)))
(assert (not (= x36 x66)))
(assert (not (= x36 (_ bv3 8))))
(assert (not (= x36 (_ bv6 8))))
(assert (not (= (_ bv2 8) x56)))
(assert (not (= (_ bv2 8) x66)))
(assert (not (= (_ bv2 8) (_ bv3 8))))
(assert (not (= (_ bv2 8) (_ bv6 8))))
(assert (not (= x56 x66)))
(assert (not (= x56 (_ bv3 8))))
(assert (not (= x56 (_ bv6 8))))
(assert (not (= x66 (_ bv3 8))))
(assert (not (= x66 (_ bv6 8))))
(assert (not (= (_ bv3 8) (_ bv6 8))))
(assert (not (= x07 (_ bv2 8))))
(assert (not (= x07 (_ bv7 8))))
(assert (not (= x07 (_ bv5 8))))
(assert (not (= x07 x47)))
(assert (not (= x07 (_ bv8 8))))
(assert (not (= x07 x67)))
(assert (not (= x07 (_ bv4 8))))
(assert (not (= x07 x87)))
(assert (not (= (_ bv2 8) (_ bv7 8))))
(assert (not (= (_ bv2 8) (_ bv5 8))))
(assert (not (= (_ bv2 8) x47)))
(assert (not (= (_ bv2 8) (_ bv8 8))))
(assert (not (= (_ bv2 8) x67)))
(assert (not (= (_ bv2 8) (_ bv4 8))))
(assert (not (= (_ bv2 8) x87)))
(assert (not (= (_ bv7 8) (_ bv5 8))))
(assert (not (= (_ bv7 8) x47)))
(assert (not (= (_ bv7 8) (_ bv8 8))))
(assert (not (= (_ bv7 8) x67)))
(assert (not (= (_ bv7 8) (_ bv4 8))))
(assert (not (= (_ bv7 8) x87)))
(assert (not (= (_ bv5 8) x47)))
(assert (not (= (_ bv5 8) (_ bv8 8))))
(assert (not (= (_ bv5 8) x67)))
(assert (not (= (_ bv5 8) (_ bv4 8))))
(assert (not (= (_ bv5 8) x87)))
(assert (not (= x47 (_ bv8 8))))
(assert (not (= x47 x67)))
(assert (not (= x47 (_ bv4 8))))
(assert (not (= x47 x87)))
(assert (not (= (_ bv8 8) x67)))
(assert (not (= (_ bv8 8) (_ bv4 8))))
(assert (not (= (_ bv8 8) x87)))
(assert (not (= x67 (_ bv4 8))))
(assert (not (= x67 x87)))
(assert (not (= (_ bv4 8) x87)))
(assert (not (= x08 x18)))
(assert (not (= x08 x28)))
(assert (not (= x08 x38)))
(assert (not (= x08 x48)))
(assert (not (= x08 (_ bv9 8))))
(assert (not (= x08 x68)))
(assert (not (= x08 x78)))
(assert (not (= x08 (_ bv2 8))))
(assert (not (= x18 x28)))
(assert (not (= x18 x38)))
(assert (not (= x18 x48)))
(assert (not (= x18 (_ bv9 8))))
(assert (not (= x18 x68)))
(assert (not (= x18 x78)))
(assert (not (= x18 (_ bv2 8))))
(assert (not (= x28 x38)))
(assert (not (= x28 x48)))
(assert (not (= x28 (_ bv9 8))))
(assert (not (= x28 x68)))
(assert (not (= x28 x78)))
(assert (not (= x28 (_ bv2 8))))
(assert (not (= x38 x48)))
(assert (not (= x38 (_ bv9 8))))
(assert (not (= x38 x68)))
(assert (not (= x38 x78)))
(assert (not (= x38 (_ bv2 8))))
(assert (not (= x48 (_ bv9 8))))
(assert (not (= x48 x68)))
(assert (not (= x48 x78)))
(assert (not (= x48 (_ bv2 8))))
(assert (not (= (_ bv9 8) x68)))
(assert (not (= (_ bv9 8) x78)))
(assert (not (= (_ bv9 8) (_ bv2 8))))
(assert (not (= x68 x78)))
(assert (not (= x68 (_ bv2 8))))
(assert (not (= x78 (_ bv2 8))))
(assert (not (= x00 (_ bv4 8))))
(assert (not (= x00 x02)))
(assert (not (= x00 (_ bv8 8))))
(assert (not (= x00 x11)))
(assert (not (= x00 (_ bv3 8))))
(assert (not (= x00 x20)))
(assert (not (= x00 (_ bv5 8))))
(assert (not (= x00 x22)))
(assert (not (= (_ bv4 8) x02)))
(assert (not (= (_ bv4 8) (_ bv8 8))))
(assert (not (= (_ bv4 8) x11)))
(assert (not (= (_ bv4 8) (_ bv3 8))))
(assert (not (= (_ bv4 8) x20)))
(assert (not (= (_ bv4 8) (_ bv5 8))))
(assert (not (= (_ bv4 8) x22)))
(assert (not (= x02 (_ bv8 8))))
(assert (not (= x02 x11)))
(assert (not (= x02 (_ bv3 8))))
(assert (not (= x02 x20)))
(assert (not (= x02 (_ bv5 8))))
(assert (not (= x02 x22)))
(assert (not (= (_ bv8 8) x11)))
(assert (not (= (_ bv8 8) (_ bv3 8))))
(assert (not (= (_ bv8 8) x20)))
(assert (not (= (_ bv8 8) (_ bv5 8))))
(assert (not (= (_ bv8 8) x22)))
(assert (not (= x11 (_ bv3 8))))
(assert (not (= x11 x20)))
(assert (not (= x11 (_ bv5 8))))
(assert (not (= x11 x22)))
(assert (not (= (_ bv3 8) x20)))
(assert (not (= (_ bv3 8) (_ bv5 8))))
(assert (not (= (_ bv3 8) x22)))
(assert (not (= x20 (_ bv5 8))))
(assert (not (= x20 x22)))
(assert (not (= (_ bv5 8) x22)))
(assert (not (= (_ bv3 8) x04)))
(assert (not (= (_ bv3 8) (_ bv1 8))))
(assert (not (= (_ bv3 8) x13)))
(assert (not (= (_ bv3 8) (_ bv5 8))))
(assert (not (= (_ bv3 8) x15)))
(assert (not (= (_ bv3 8) x23)))
(assert (not (= (_ bv3 8) (_ bv4 8))))
(assert (not (= (_ bv3 8) x25)))
(assert (not (= x04 (_ bv1 8))))
(assert (not (= x04 x13)))
(assert (not (= x04 (_ bv5 8))))
(assert (not (= x04 x15)))
(assert (not (= x04 x23)))
(assert (not (= x04 (_ bv4 8))))
(assert (not (= x04 x25)))
(assert (not (= (_ bv1 8) x13)))
(assert (not (= (_ bv1 8) (_ bv5 8))))
(assert (not (= (_ bv1 8) x15)))
(assert (not (= (_ bv1 8) x23)))
(assert (not (= (_ bv1 8) (_ bv4 8))))
(assert (not (= (_ bv1 8) x25)))
(assert (not (= x13 (_ bv5 8))))
(assert (not (= x13 x15)))
(assert (not (= x13 x23)))
(assert (not (= x13 (_ bv4 8))))
(assert (not (= x13 x25)))
(assert (not (= (_ bv5 8) x15)))
(assert (not (= (_ bv5 8) x23)))
(assert (not (= (_ bv5 8) (_ bv4 8))))
(assert (not (= (_ bv5 8) x25)))
(assert (not (= x15 x23)))
(assert (not (= x15 (_ bv4 8))))
(assert (not (= x15 x25)))
(assert (not (= x23 (_ bv4 8))))
(assert (not (= x23 x25)))
(assert (not (= (_ bv4 8) x25)))
(assert (not (= (_ bv8 8) x07)))
(assert (not (= (_ bv8 8) x08)))
(assert (not (= (_ bv8 8) (_ bv1 8))))
(assert (not (= (_ bv8 8) (_ bv2 8))))
(assert (not (= (_ bv8 8) x18)))
(assert (not (= (_ bv8 8) x26)))
(assert (not (= (_ bv8 8) (_ bv7 8))))
(assert (not (= (_ bv8 8) x28)))
(assert (not (= x07 x08)))
(assert (not (= x07 (_ bv1 8))))
(assert (not (= x07 (_ bv2 8))))
(assert (not (= x07 x18)))
(assert (not (= x07 x26)))
(assert (not (= x07 (_ bv7 8))))
(assert (not (= x07 x28)))
(assert (not (= x08 (_ bv1 8))))
(assert (not (= x08 (_ bv2 8))))
(assert (not (= x08 x18)))
(assert (not (= x08 x26)))
(assert (not (= x08 (_ bv7 8))))
(assert (not (= x08 x28)))
(assert (not (= (_ bv1 8) (_ bv2 8))))
(assert (not (= (_ bv1 8) x18)))
(assert (not (= (_ bv1 8) x26)))
(assert (not (= (_ bv1 8) (_ bv7 8))))
(assert (not (= (_ bv1 8) x28)))
(assert (not (= (_ bv2 8) x18)))
(assert (not (= (_ bv2 8) x26)))
(assert (not (= (_ bv2 8) (_ bv7 8))))
(assert (not (= (_ bv2 8) x28)))
(assert (not (= x18 x26)))
(assert (not (= x18 (_ bv7 8))))
(assert (not (= x18 x28)))
(assert (not (= x26 (_ bv7 8))))
(assert (not (= x26 x28)))
(assert (not (= (_ bv7 8) x28)))
(assert (not (= (_ bv4 8) x31)))
(assert (not (= (_ bv4 8) x32)))
(assert (not (= (_ bv4 8) (_ bv7 8))))
(assert (not (= (_ bv4 8) x41)))
(assert (not (= (_ bv4 8) (_ bv5 8))))
(assert (not (= (_ bv4 8) (_ bv1 8))))
(assert (not (= (_ bv4 8) x51)))
(assert (not (= (_ bv4 8) (_ bv6 8))))
(assert (not (= x31 x32)))
(assert (not (= x31 (_ bv7 8))))
(assert (not (= x31 x41)))
(assert (not (= x31 (_ bv5 8))))
(assert (not (= x31 (_ bv1 8))))
(assert (not (= x31 x51)))
(assert (not (= x31 (_ bv6 8))))
(assert (not (= x32 (_ bv7 8))))
(assert (not (= x32 x41)))
(assert (not (= x32 (_ bv5 8))))
(assert (not (= x32 (_ bv1 8))))
(assert (not (= x32 x51)))
(assert (not (= x32 (_ bv6 8))))
(assert (not (= (_ bv7 8) x41)))
(assert (not (= (_ bv7 8) (_ bv5 8))))
(assert (not (= (_ bv7 8) (_ bv1 8))))
(assert (not (= (_ bv7 8) x51)))
(assert (not (= (_ bv7 8) (_ bv6 8))))
(assert (not (= x41 (_ bv5 8))))
(assert (not (= x41 (_ bv1 8))))
(assert (not (= x41 x51)))
(assert (not (= x41 (_ bv6 8))))
(assert (not (= (_ bv5 8) (_ bv1 8))))
(assert (not (= (_ bv5 8) x51)))
(assert (not (= (_ bv5 8) (_ bv6 8))))
(assert (not (= (_ bv1 8) x51)))
(assert (not (= (_ bv1 8) (_ bv6 8))))
(assert (not (= x51 (_ bv6 8))))
(assert (not (= x33 x34)))
(assert (not (= x33 x35)))
(assert (not (= x33 x43)))
(assert (not (= x33 (_ bv6 8))))
(assert (not (= x33 (_ bv9 8))))
(assert (not (= x33 (_ bv7 8))))
(assert (not (= x33 (_ bv2 8))))
(assert (not (= x33 x55)))
(assert (not (= x34 x35)))
(assert (not (= x34 x43)))
(assert (not (= x34 (_ bv6 8))))
(assert (not (= x34 (_ bv9 8))))
(assert (not (= x34 (_ bv7 8))))
(assert (not (= x34 (_ bv2 8))))
(assert (not (= x34 x55)))
(assert (not (= x35 x43)))
(assert (not (= x35 (_ bv6 8))))
(assert (not (= x35 (_ bv9 8))))
(assert (not (= x35 (_ bv7 8))))
(assert (not (= x35 (_ bv2 8))))
(assert (not (= x35 x55)))
(assert (not (= x43 (_ bv6 8))))
(assert (not (= x43 (_ bv9 8))))
(assert (not (= x43 (_ bv7 8))))
(assert (not (= x43 (_ bv2 8))))
(assert (not (= x43 x55)))
(assert (not (= (_ bv6 8) (_ bv9 8))))
(assert (not (= (_ bv6 8) (_ bv7 8))))
(assert (not (= (_ bv6 8) (_ bv2 8))))
(assert (not (= (_ bv6 8) x55)))
(assert (not (= (_ bv9 8) (_ bv7 8))))
(assert (not (= (_ bv9 8) (_ bv2 8))))
(assert (not (= (_ bv9 8) x55)))
(assert (not (= (_ bv7 8) (_ bv2 8))))
(assert (not (= (_ bv7 8) x55)))
(assert (not (= (_ bv2 8) x55)))
(assert (not (= x36 (_ bv5 8))))
(assert (not (= x36 x38)))
(assert (not (= x36 (_ bv2 8))))
(assert (not (= x36 x47)))
(assert (not (= x36 x48)))
(assert (not (= x36 x56)))
(assert (not (= x36 (_ bv8 8))))
(assert (not (= x36 (_ bv9 8))))
(assert (not (= (_ bv5 8) x38)))
(assert (not (= (_ bv5 8) (_ bv2 8))))
(assert (not (= (_ bv5 8) x47)))
(assert (not (= (_ bv5 8) x48)))
(assert (not (= (_ bv5 8) x56)))
(assert (not (= (_ bv5 8) (_ bv8 8))))
(assert (not (= (_ bv5 8) (_ bv9 8))))
(assert (not (= x38 (_ bv2 8))))
(assert (not (= x38 x47)))
(assert (not (= x38 x48)))
(assert (not (= x38 x56)))
(assert (not (= x38 (_ bv8 8))))
(assert (not (= x38 (_ bv9 8))))
(assert (not (= (_ bv2 8) x47)))
(assert (not (= (_ bv2 8) x48)))
(assert (not (= (_ bv2 8) x56)))
(assert (not (= (_ bv2 8) (_ bv8 8))))
(assert (not (= (_ bv2 8) (_ bv9 8))))
(assert (not (= x47 x48)))
(assert (not (= x47 x56)))
(assert (not (= x47 (_ bv8 8))))
(assert (not (= x47 (_ bv9 8))))
(assert (not (= x48 x56)))
(assert (not (= x48 (_ bv8 8))))
(assert (not (= x48 (_ bv9 8))))
(assert (not (= x56 (_ bv8 8))))
(assert (not (= x56 (_ bv9 8))))
(assert (not (= (_ bv8 8) (_ bv9 8))))
(assert (not (= x60 x61)))
(assert (not (= x60 x62)))
(assert (not (= x60 x70)))
(assert (not (= x60 x71)))
(assert (not (= x60 x72)))
(assert (not (= x60 (_ bv9 8))))
(assert (not (= x60 x81)))
(assert (not (= x60 x82)))
(assert (not (= x61 x62)))
(assert (not (= x61 x70)))
(assert (not (= x61 x71)))
(assert (not (= x61 x72)))
(assert (not (= x61 (_ bv9 8))))
(assert (not (= x61 x81)))
(assert (not (= x61 x82)))
(assert (not (= x62 x70)))
(assert (not (= x62 x71)))
(assert (not (= x62 x72)))
(assert (not (= x62 (_ bv9 8))))
(assert (not (= x62 x81)))
(assert (not (= x62 x82)))
(assert (not (= x70 x71)))
(assert (not (= x70 x72)))
(assert (not (= x70 (_ bv9 8))))
(assert (not (= x70 x81)))
(assert (not (= x70 x82)))
(assert (not (= x71 x72)))
(assert (not (= x71 (_ bv9 8))))
(assert (not (= x71 x81)))
(assert (not (= x71 x82)))
(assert (not (= x72 (_ bv9 8))))
(assert (not (= x72 x81)))
(assert (not (= x72 x82)))
(assert (not (= (_ bv9 8) x81)))
(assert (not (= (_ bv9 8) x82)))
(assert (not (= x81 x82)))
(assert (not (= (_ bv1 8) (_ bv7 8))))
(assert (not (= (_ bv1 8) (_ bv2 8))))
(assert (not (= (_ bv1 8) x73)))
(assert (not (= (_ bv1 8) (_ bv8 8))))
(assert (not (= (_ bv1 8) x75)))
(assert (not (= (_ bv1 8) x83)))
(assert (not (= (_ bv1 8) x84)))
(assert (not (= (_ bv1 8) x85)))
(assert (not (= (_ bv7 8) (_ bv2 8))))
(assert (not (= (_ bv7 8) x73)))
(assert (not (= (_ bv7 8) (_ bv8 8))))
(assert (not (= (_ bv7 8) x75)))
(assert (not (= (_ bv7 8) x83)))
(assert (not (= (_ bv7 8) x84)))
(assert (not (= (_ bv7 8) x85)))
(assert (not (= (_ bv2 8) x73)))
(assert (not (= (_ bv2 8) (_ bv8 8))))
(assert (not (= (_ bv2 8) x75)))
(assert (not (= (_ bv2 8) x83)))
(assert (not (= (_ bv2 8) x84)))
(assert (not (= (_ bv2 8) x85)))
(assert (not (= x73 (_ bv8 8))))
(assert (not (= x73 x75)))
(assert (not (= x73 x83)))
(assert (not (= x73 x84)))
(assert (not (= x73 x85)))
(assert (not (= (_ bv8 8) x75)))
(assert (not (= (_ bv8 8) x83)))
(assert (not (= (_ bv8 8) x84)))
(assert (not (= (_ bv8 8) x85)))
(assert (not (= x75 x83)))
(assert (not (= x75 x84)))
(assert (not (= x75 x85)))
(assert (not (= x83 x84)))
(assert (not (= x83 x85)))
(assert (not (= x84 x85)))
(assert (not (= x66 x67)))
(assert (not (= x66 x68)))
(assert (not (= x66 (_ bv3 8))))
(assert (not (= x66 (_ bv4 8))))
(assert (not (= x66 x78)))
(assert (not (= x66 (_ bv6 8))))
(assert (not (= x66 x87)))
(assert (not (= x66 (_ bv2 8))))
(assert (not (= x67 x68)))
(assert (not (= x67 (_ bv3 8))))
(assert (not (= x67 (_ bv4 8))))
(assert (not (= x67 x78)))
(assert (not (= x67 (_ bv6 8))))
(assert (not (= x67 x87)))
(assert (not (= x67 (_ bv2 8))))
(assert (not (= x68 (_ bv3 8))))
(assert (not (= x68 (_ bv4 8))))
(assert (not (= x68 x78)))
(assert (not (= x68 (_ bv6 8))))
(assert (not (= x68 x87)))
(assert (not (= x68 (_ bv2 8))))
(assert (not (= (_ bv3 8) (_ bv4 8))))
(assert (not (= (_ bv3 8) x78)))
(assert (not (= (_ bv3 8) (_ bv6 8))))
(assert (not (= (_ bv3 8) x87)))
(assert (not (= (_ bv3 8) (_ bv2 8))))
(assert (not (= (_ bv4 8) x78)))
(assert (not (= (_ bv4 8) (_ bv6 8))))
(assert (not (= (_ bv4 8) x87)))
(assert (not (= (_ bv4 8) (_ bv2 8))))
(assert (not (= x78 (_ bv6 8))))
(assert (not (= x78 x87)))
(assert (not (= x78 (_ bv2 8))))
(assert (not (= (_ bv6 8) x87)))
(assert (not (= (_ bv6 8) (_ bv2 8))))
(assert (not (= x87 (_ bv2 8))))
(check-sat)
(exit)
